
--- Job bchfcnet.gms Start 02/08/22 16:58:18 34.3.0 rac355f3 WEX-WEI x86 64bit/MS Windows
--- Applying:
    C:\GAMS\34\gmsprmNT.txt
--- GAMS Parameters defined
    Input C:\Users\dekhi\Desktop\gamsworld\FCNetLib\test\bchfcnet.gms
    PageSize 0
    ScrDir C:\Users\dekhi\Desktop\gamsworld\FCNetLib\test\225a\
    SysDir C:\GAMS\34\
    LogOption 3
    ErrMsg 1
    ErrorLog 99
    IDE 1
    ResLim 3600
    LstTitleLeftAligned 1
Licensee: Eval License                                   S211214|0002AW-GEN
          Ostfalia Hochschule fuer angewandte Wissenschaften        DCE1645
          C:\Users\dekhi\Documents\GAMS\gamslice.txt
          License Admin: Mohamed Ali Dekhil, dekhil.medali@gmail.com       
          Evaluation license: Not for commercial or production use
GAMS 34.3.0   Copyright (C) 1987-2021 GAMS Development. All rights reserved
--- Starting compilation
--- bchfcnet.gms(34) 2 Mb
--- . decl.gms(15) 2 Mb
--- bchfcnet.gms(38) 2 Mb
--- . g200x740.inc(1615) 3 Mb
--- bchfcnet.gms(67) 3 Mb
--- . equs.gms(20) 3 Mb
--- bchfcnet.gms(97) 3 Mb
--- call rm -f bchout_i.gdx startcut.txt startheur.txt cuthist.gdx agap.txt rgap.txt cntfail.txt
--- bchfcnet.gms(118) 3 Mb
--- Starting execution: elapsed 0:00:00.119
--- bchfcnet.gms(1673) 4 Mb
--- GDX File (execute_unload) C:\Users\dekhi\Desktop\gamsworld\FCNetLib\test\net.gdx
--- bchfcnet.gms(1764) 4 Mb
--- GDXin=C:\Users\dekhi\Desktop\gamsworld\FCNetLib\test\points\g200x740.gdx
--- GDX File (execute_load) C:\Users\dekhi\Desktop\gamsworld\FCNetLib\test\points\g200x740.gdx
--- Generating MIP model master
--- bchfcnet.gms(1768) 5 Mb
---   941 rows  1,481 columns  4,441 non-zeroes
---   740 discrete-columns
--- Executing CPLEX (Solvelink=2): elapsed 0:00:00.162

IBM ILOG CPLEX   34.3.0 rac355f3 Released Feb 25, 2021 WEI x86 64bit/MS Window

--- GAMS/Cplex Link licensed for continuous and discrete problems.

Reading parameter(s) from "C:\Users\dekhi\Desktop\gamsworld\FCNetLib\test\cplex.op2"
>>  mipstart 1
Finished reading from "C:\Users\dekhi\Desktop\gamsworld\FCNetLib\test\cplex.op2"

--- Space for names approximately 0.05 Mb
--- Use option 'names no' to turn use of names off
--- GMO memory 0.78 Mb (peak 0.79 Mb)
--- Dictionary memory 0.00 Mb
--- Cplex 20.1.0.0 link memory 0.04 Mb (peak 0.16 Mb)
--- Starting Cplex

Version identifier: 20.1.0.0 | 2020-11-10 | 9bedb6d68
CPXPARAM_Threads                                 1
CPXPARAM_MIP_Display                             4
CPXPARAM_TimeLimit                               3600
CPXPARAM_MIP_Tolerances_AbsMIPGap                0
CPXPARAM_MIP_Tolerances_MIPGap                   0
Generic callback                                 0x50
Processing 1 MIP starts.
MIP start 'm1' defined solution with objective 44316.0000.
1 of 1 MIP starts provided solutions.
MIP start 'm1' defined initial solution with objective 44316.0000.
Tried aggregator 1 time.
MIP Presolve eliminated 199 rows and 1 columns.
MIP Presolve added 398 rows and 0 columns.
Reduced MIP has 1139 rows, 1480 columns, and 3358 nonzeros.
Reduced MIP has 740 binaries, 0 generals, 0 SOSs, and 0 indicators.
Presolve time = 0.00 sec. (6.83 ticks)
Probing fixed 0 vars, tightened 4 bounds.
Probing time = 0.02 sec. (0.20 ticks)
Tried aggregator 1 time.
Detecting symmetries...
MIP Presolve modified 6 coefficients.
Reduced MIP has 1139 rows, 1480 columns, and 3358 nonzeros.
Reduced MIP has 740 binaries, 0 generals, 0 SOSs, and 0 indicators.
Presolve time = 0.00 sec. (5.92 ticks)
Probing time = 0.00 sec. (0.20 ticks)
Clique table members: 6.
MIP emphasis: balance optimality and feasibility.
MIP search method: dynamic search.
Parallel mode: none, using 1 thread.
Tried aggregator 1 time.
LP Presolve eliminated 541 rows and 541 columns.
Aggregator did 199 substitutions.
Reduced LP has 399 rows, 740 columns, and 1878 nonzeros.
Presolve time = 0.00 sec. (0.86 ticks)

Iteration log . . .
Iteration:     1   Dual objective     =           327.815333
Iteration:    62   Dual objective     =         14317.084667
Iteration:   124   Dual objective     =         22420.332000
Iteration:   186   Dual objective     =         31585.761333
Iteration:   257   Dual objective     =         34071.496000
Initializing dual steep norms . . .
Root relaxation solution time = 0.00 sec. (4.22 ticks)

        Nodes                                         Cuts/
   Node  Left     Objective  IInf  Best Integer    Best Bound    ItCnt     Gap

*     0+    0                        44316.0000        0.0000           100.00%
Found incumbent of value 44316.000000 after 0.02 sec. (19.53 ticks)
      0     0    34077.5427   161    44316.0000    34077.5427      260   23.10%
      0     0    41854.7825   226    44316.0000     Cuts: 384      565    5.55%
      0     0    42508.3434   222    44316.0000     Cuts: 377      750    4.08%
      0     0    42904.6127   213    44316.0000     Cuts: 333      954    3.18%
      0     0    43209.2989   209    44316.0000     Cuts: 264     1110    2.50%
      0     0    43422.2334   222    44316.0000     Cuts: 246     1278    2.02%
Detecting symmetries...
      0     0    43558.4273   196    44316.0000     Cuts: 272     1406    1.71%
      0     0    43707.7951   206    44316.0000     Cuts: 163     1564    1.37%
      0     0    43757.4872   193    44316.0000     Cuts: 169     1686    1.26%
      0     0    43810.6812   193    44316.0000     Cuts: 144     1818    1.14%
      0     0    43842.3151   155    44316.0000     Cuts: 128     1926    1.07%
      0     0    43861.1469   181    44316.0000      Cuts: 89     2036    1.03%
      0     0    43874.7599   152    44316.0000      Cuts: 86     2121    1.00%
      0     0    43881.7482   150    44316.0000      Cuts: 65     2184    0.98%
      0     0    43888.5824   142    44316.0000      Cuts: 42     2237    0.96%
      0     0    43890.9307   133    44316.0000      Cuts: 50     2275    0.96%
      0     0    43896.8677   145    44316.0000      Cuts: 29     2298    0.95%
Detecting symmetries...
      0     2    43896.8677   145    44316.0000    43896.8757     2298    0.95%
Elapsed time = 0.59 sec. (599.85 ticks, tree = 0.01 MB, solutions = 3)
    104    87    43989.8359   160    44316.0000    43905.0857     4380    0.93%
                                                  Impl Bds: 6                  
    235   190    44268.3945    78    44316.0000    43908.8404     6745    0.92%
                                                      Cuts: 3                  
    368   286    44237.6662   143    44316.0000    43923.1906     9276    0.89%
                                                      Cuts: 9                  

Performing restart 1

Repeating presolve.
Tried aggregator 1 time.
MIP Presolve modified 950 coefficients.
Reduced MIP has 1139 rows, 1480 columns, and 3358 nonzeros.
Reduced MIP has 740 binaries, 0 generals, 0 SOSs, and 0 indicators.
Presolve time = 0.00 sec. (5.37 ticks)
Tried aggregator 1 time.
MIP Presolve modified 352 coefficients.
Reduced MIP has 1139 rows, 1480 columns, and 3358 nonzeros.
Reduced MIP has 740 binaries, 0 generals, 0 SOSs, and 0 indicators.
Presolve time = 0.00 sec. (5.89 ticks)
Represolve time = 0.02 sec. (16.80 ticks)
Tried aggregator 1 time.
LP Presolve eliminated 41 rows and 36 columns.
Aggregator did 30 substitutions.
Reduced LP has 1702 rows, 1414 columns, and 8526 nonzeros.
Presolve time = 0.00 sec. (1.40 ticks)

Iteration log . . .
Iteration:     1   Dual objective     =           313.000000
Iteration:   115   Dual objective     =         21630.584000
Iteration:   244   Dual objective     =         33903.654857
Iteration:   381   Dual objective     =         39085.589920
Iteration:   489   Dual objective     =         42236.095352
Iteration:   616   Dual objective     =         43456.187924
Iteration:   716   Dual objective     =         43842.874951
Iteration:   794   Dual objective     =         43901.990115
Iteration:   864   Dual objective     =         43906.635927
Initializing dual steep norms . . .
    518     0    43950.0232   207    44316.0000     Cuts: 202    12597    0.83%
    518     0    44018.2171   182    44316.0000     Cuts: 310    12769    0.67%
    518     0    44051.8590   198    44316.0000     Cuts: 295    12972    0.60%
    518     0    44079.3742   199    44316.0000     Cuts: 295    13149    0.53%
    518     0    44088.7355   208    44316.0000     Cuts: 158    13299    0.51%
    518     0    44104.7329   182    44316.0000     Cuts: 308    13470    0.48%
    518     0    44114.9092   196    44316.0000      Cuts: 95    13590    0.45%
    518     0    44131.1283   192    44316.0000     Cuts: 183    13787    0.42%
    518     0    44133.1851   129    44316.0000     Cuts: 217    13865    0.41%
    518     0    44134.3513   161    44316.0000      Cuts: 38    13932    0.41%
    518     0    44141.8450   145    44316.0000      Cuts: 81    14026    0.39%
    518     0    44144.4949   141    44316.0000      Cuts: 76    14124    0.39%
    518     0    44146.7359   120    44316.0000      Cuts: 94    14188    0.38%
    518     0    44149.8681   175    44316.0000      Cuts: 57    14281    0.37%
    518     0    44151.0837   181    44316.0000      Cuts: 85    14364    0.37%
    518     0    44152.7673   209    44316.0000      Cuts: 93    14495    0.37%
    518     0    44154.0075   176    44316.0000      Cuts: 58    14599    0.37%
    518     0    44155.9018   181    44316.0000      Cuts: 74    14706    0.36%
    518     0    44157.5042   176    44316.0000     Cuts: 104    14755    0.36%
    518     2    44157.5042   176    44316.0000    44157.5102    14755    0.36%
    520     4    44246.3712   167    44316.0000    44157.8782    14940    0.36%
    523     7    44172.8987   109    44316.0000    44167.0037    15327    0.34%
    527     9    44183.0550   120    44316.0000    44167.7262    15711    0.33%
    531    11    44191.1186    93    44316.0000    44167.7262    16035    0.33%
    538    17    44207.0384    59    44316.0000    44167.7262    16278    0.33%
    638    85    44308.7726    65    44316.0000    44182.3920    22142    0.30%
                                                     Cuts: 28                  
Elapsed time = 5.52 sec. (6138.53 ticks, tree = 0.11 MB, solutions = 3)
    777   157    44280.0238   139    44316.0000    44206.0143    26761    0.25%
                                                     Cuts: 27                  
    963   236    44311.1361    39    44316.0000    44227.1979    32344    0.20%
                                                     Cuts: 18                  
   1142   305    44267.3407    59    44316.0000    44239.5773    37784    0.17%
   1325   378    44284.1669     6    44316.0000    44249.1343    42598    0.15%
                                                      Cuts: 8                  
   1558   468    44297.5615   105    44316.0000    44257.1961    49189    0.13%
                                                      Cuts: 5                  
   1778   543    44276.0942    48    44316.0000    44262.4153    55047    0.12%
                                                     Cuts: 19                  
   1957   580    44296.3482    42    44316.0000    44267.1671    60513    0.11%
                                                     Cuts: 13                  
   2195   676    44287.4464     7    44316.0000    44269.1498    66984    0.11%
                                                      Cuts: 8                  
   2403   723        cutoff          44316.0000    44273.7134    72573    0.10%
                                                     Cuts: 10                  
   2608   792    44304.3333     3    44316.0000    44276.3166    78713    0.09%
                                                      Cuts: 4                  
Elapsed time = 13.03 sec. (15818.79 ticks, tree = 6.52 MB, solutions = 3)
   2840   836    44289.1032     3    44316.0000    44279.2566    84974    0.08%
   3081   891        cutoff          44316.0000    44281.2578    91685    0.08%
   3290   907    44311.6601   110    44316.0000    44283.5743    98601    0.07%
                                                      Cuts: 2                  
   3538   937    44305.5953    39    44316.0000    44285.4671   105294    0.07%
   3791   945    44308.2940    22    44316.0000    44287.6158   111444    0.06%
                                                     Fract: 1                  
   4020   914    44311.6906    54    44316.0000    44290.4041   117639    0.06%
                                                      Cuts: 5                  
   4240   868    44310.8290    50    44316.0000    44293.0000   123516    0.05%
                                                      Cuts: 3                  
   4447   830    44309.0724    90    44316.0000    44295.1601   129166    0.05%
   4705   714    44307.2850    38    44316.0000    44298.7450   135440    0.04%
   5020   604    44305.6609    26    44316.0000    44302.5194   143543    0.03%
Elapsed time = 20.70 sec. (25424.80 ticks, tree = 4.64 MB, solutions = 3)
   5451   333        cutoff          44316.0000    44308.8368   152650    0.02%

Cover cuts applied:  74
Implied bound cuts applied:  12
Flow cuts applied:  466
Mixed integer rounding cuts applied:  120
Flow path cuts applied:  5
Zero-half cuts applied:  2
Multi commodity flow cuts applied:  15
Lift and project cuts applied:  61
Gomory fractional cuts applied:  59

Root node processing (before b&c):
  Real time             =    0.59 sec. (599.25 ticks)
Sequential b&c:
  Real time             =   21.31 sec. (26271.51 ticks)
                          ------------
Total (root+branch&cut) =   21.91 sec. (26870.76 ticks)

--- MIP status (101): integer optimal solution.
--- Cplex Time: 21.91sec (det. 26870.76 ticks)

--- Fixing integer variables and solving final LP...

Version identifier: 20.1.0.0 | 2020-11-10 | 9bedb6d68
CPXPARAM_Advance                                 2
CPXPARAM_Threads                                 1
CPXPARAM_MIP_Display                             4
CPXPARAM_TimeLimit                               3600
CPXPARAM_MIP_Tolerances_AbsMIPGap                0
CPXPARAM_MIP_Tolerances_MIPGap                   0
Tried aggregator 1 time.
LP Presolve eliminated 940 rows and 1481 columns.
All rows and columns eliminated.
Presolve time = 0.00 sec. (0.55 ticks)

--- Fixed MIP status (1): optimal.
--- Cplex Time: 0.00sec (det. 0.95 ticks)


Proven optimal solution
MIP Solution:        44316.000000    (155457 iterations, 5803 nodes)
Final Solve:         44316.000000    (0 iterations)

Best possible:       44316.000000
Absolute gap:            0.000000
Relative gap:            0.000000

--- Reading solution for model master
*** Status: Normal completion
--- Job bchfcnet.gms Stop 02/08/22 16:58:40 elapsed 0:00:22.111
